0 0 0 0
0 1 1 4
0 2 0 0
0 3 0 0
0 4 0 10
0 5 0 2
0 6 0 2
0 7 0 16
0 8 0 5
0 9 0 7
0 10 0 3
0 11 0 21
0 12 1 27
0 13 2 9
0 14 0 9
0 15 0 23
0 16 0 34
0 17 0 14
0 18 0 19
0 19 0 30
0 20 0 3
0 21 0 35
0 22 0 30
0 23 0 19
0 24 1 16
0 25 0 27
0 26 2 26
0 27 0 34
0 28 0 32
0 29 1 36
0 30 0 36
0 31 0 38
